
n_res = 4;
rcap = [33, 33, 1245, 1181];
rtype = [1, 1, 2, 2];
n_tasks = 100;
modes =  [{1, 2, 3, 4, 5, 6}, {7, 8, 9, 10, 11, 12}, {13, 14, 15, 16, 17, 18}, {19, 20, 21, 22, 23, 24}, {25, 26, 27, 28, 29, 30}, {31, 32, 33, 34, 35, 36}, {37, 38, 39, 40, 41, 42}, {43, 44, 45, 46, 47, 48}, {49, 50, 51, 52, 53, 54}, {55, 56, 57, 58, 59, 60}, {61, 62, 63, 64, 65, 66}, {67, 68, 69, 70, 71, 72}, {73, 74, 75, 76, 77, 78}, {79, 80, 81, 82, 83, 84}, {85, 86, 87, 88, 89, 90}, {91, 92, 93, 94, 95, 96}, {97, 98, 99, 100, 101, 102}, {103, 104, 105, 106, 107, 108}, {109, 110, 111, 112, 113, 114}, {115, 116, 117, 118, 119, 120}, {121, 122, 123, 124, 125, 126}, {127, 128, 129, 130, 131, 132}, {133, 134, 135, 136, 137, 138}, {139, 140, 141, 142, 143, 144}, {145, 146, 147, 148, 149, 150}, {151, 152, 153, 154, 155, 156}, {157, 158, 159, 160, 161, 162}, {163, 164, 165, 166, 167, 168}, {169, 170, 171, 172, 173, 174}, {175, 176, 177, 178, 179, 180}, {181, 182, 183, 184, 185, 186}, {187, 188, 189, 190, 191, 192}, {193, 194, 195, 196, 197, 198}, {199, 200, 201, 202, 203, 204}, {205, 206, 207, 208, 209, 210}, {211, 212, 213, 214, 215, 216}, {217, 218, 219, 220, 221, 222}, {223, 224, 225, 226, 227, 228}, {229, 230, 231, 232, 233, 234}, {235, 236, 237, 238, 239, 240}, {241, 242, 243, 244, 245, 246}, {247, 248, 249, 250, 251, 252}, {253, 254, 255, 256, 257, 258}, {259, 260, 261, 262, 263, 264}, {265, 266, 267, 268, 269, 270}, {271, 272, 273, 274, 275, 276}, {277, 278, 279, 280, 281, 282}, {283, 284, 285, 286, 287, 288}, {289, 290, 291, 292, 293, 294}, {295, 296, 297, 298, 299, 300}, {301, 302, 303, 304, 305, 306}, {307, 308, 309, 310, 311, 312}, {313, 314, 315, 316, 317, 318}, {319, 320, 321, 322, 323, 324}, {325, 326, 327, 328, 329, 330}, {331, 332, 333, 334, 335, 336}, {337, 338, 339, 340, 341, 342}, {343, 344, 345, 346, 347, 348}, {349, 350, 351, 352, 353, 354}, {355, 356, 357, 358, 359, 360}, {361, 362, 363, 364, 365, 366}, {367, 368, 369, 370, 371, 372}, {373, 374, 375, 376, 377, 378}, {379, 380, 381, 382, 383, 384}, {385, 386, 387, 388, 389, 390}, {391, 392, 393, 394, 395, 396}, {397, 398, 399, 400, 401, 402}, {403, 404, 405, 406, 407, 408}, {409, 410, 411, 412, 413, 414}, {415, 416, 417, 418, 419, 420}, {421, 422, 423, 424, 425, 426}, {427, 428, 429, 430, 431, 432}, {433, 434, 435, 436, 437, 438}, {439, 440, 441, 442, 443, 444}, {445, 446, 447, 448, 449, 450}, {451, 452, 453, 454, 455, 456}, {457, 458, 459, 460, 461, 462}, {463, 464, 465, 466, 467, 468}, {469, 470, 471, 472, 473, 474}, {475, 476, 477, 478, 479, 480}, {481, 482, 483, 484, 485, 486}, {487, 488, 489, 490, 491, 492}, {493, 494, 495, 496, 497, 498}, {499, 500, 501, 502, 503, 504}, {505, 506, 507, 508, 509, 510}, {511, 512, 513, 514, 515, 516}, {517, 518, 519, 520, 521, 522}, {523, 524, 525, 526, 527, 528}, {529, 530, 531, 532, 533, 534}, {535, 536, 537, 538, 539, 540}, {541, 542, 543, 544, 545, 546}, {547, 548, 549, 550, 551, 552}, {553, 554, 555, 556, 557, 558}, {559, 560, 561, 562, 563, 564}, {565, 566, 567, 568, 569, 570}, {571, 572, 573, 574, 575, 576}, {577, 578, 579, 580, 581, 582}, {583, 584, 585, 586, 587, 588}, {589, 590, 591, 592, 593, 594}, {595, 596, 597, 598, 599, 600}];
succ =  [{92, 71, 61, 58, 54, 53, 50, 49, 48, 31, 30, 7}, {72, 65, 62, 58, 57, 53, 43, 37, 24, 22, 18}, {100, 97, 92, 89, 66, 65, 64, 56, 53, 50, 48, 37, 28, 24}, {99, 98, 97, 96, 95, 91, 89, 85, 84, 71, 70, 67, 65, 64, 60, 57, 54, 52, 51, 50, 48, 42, 35}, {65, 64, 58, 54, 49, 37, 25, 18}, {100, 92, 89, 81, 66, 65, 53, 52, 49, 43, 37, 28}, {100, 98, 89, 88, 65, 64, 56, 43, 37, 24}, {99, 98, 95, 91, 87, 83, 68, 67, 66, 65, 64, 63, 61, 59, 58, 57, 55, 51, 48, 43}, {99, 96, 90, 87, 83, 68, 65, 61, 59, 58, 56, 50, 49, 25}, {96, 95, 90, 88, 86, 84, 82, 80, 71, 68, 64, 60, 59, 26}, {100, 98, 95, 93, 92, 91, 89, 85, 83, 71, 66, 64, 63, 57, 51, 48, 43}, {98, 93, 92, 89, 87, 83, 72, 71, 66, 65, 64, 63, 60, 56, 55, 50, 43}, {97, 96, 93, 92, 90, 89, 88, 85, 81, 71, 69, 65, 64, 52, 51, 36}, {99, 98, 95, 92, 89, 87, 86, 83, 81, 78, 66, 65, 59, 52, 50, 43}, {98, 97, 96, 95, 87, 86, 83, 81, 79, 68, 67, 66, 65, 62, 58, 57, 53, 52, 50}, {98, 94, 93, 92, 90, 88, 85, 81, 80, 70, 64, 63, 50, 37}, {98, 95, 93, 92, 91, 89, 86, 85, 82, 81, 76, 73, 67, 64, 58, 56, 43}, {98, 97, 96, 94, 93, 91, 90, 84, 83, 82, 81, 74, 69, 68, 66, 63, 61, 56, 55, 51}, {98, 97, 95, 94, 92, 91, 89, 88, 87, 82, 80, 78, 77, 70, 64, 63, 60, 59, 55, 51}, {100, 97, 95, 94, 91, 89, 87, 83, 81, 78, 76, 75, 69, 65, 64, 63, 59, 58, 51}, {96, 90, 89, 88, 87, 86, 84, 83, 82, 81, 80, 77, 76, 67, 65, 64, 59, 56, 55}, {95, 94, 92, 91, 90, 89, 87, 86, 84, 83, 80, 78, 69, 68, 67, 66, 64, 63, 55}, {98, 93, 89, 88, 85, 81, 79, 76, 65, 64, 55, 52, 43}, {99, 96, 93, 90, 87, 86, 84, 78, 77, 70, 68, 63, 60, 59, 52}, {95, 91, 89, 85, 84, 76, 74, 67, 63, 57, 55, 51, 48}, {98, 97, 94, 93, 92, 91, 89, 87, 83, 81, 78, 77, 74, 70, 67, 66, 63, 55}, {98, 97, 90, 88, 87, 86, 84, 83, 82, 81, 80, 79, 78, 77, 70, 65, 55}, {99, 98, 95, 94, 93, 91, 87, 86, 85, 82, 77, 76, 74, 63, 58, 57}, {100, 99, 96, 95, 92, 90, 87, 85, 83, 81, 77, 65, 56, 55, 52}, {99, 96, 95, 93, 88, 85, 84, 82, 76, 64, 60, 56, 55, 51}, {94, 90, 89, 88, 85, 81, 80, 78, 68, 67, 64, 55, 52, 51}, {98, 97, 96, 94, 93, 90, 89, 85, 83, 76, 74, 71, 63, 57, 55}, {95, 92, 88, 85, 80, 77, 76, 67, 63, 60, 56, 52}, {96, 93, 90, 87, 85, 83, 77, 67, 60, 58, 52}, {93, 88, 87, 83, 80, 77, 68, 63, 56, 55}, {98, 87, 83, 77, 74, 66, 63, 57, 56}, {95, 87, 84, 83, 78, 77, 74, 55, 51}, {99, 97, 95, 89, 84, 83, 81, 80, 77, 76, 74, 73}, {97, 95, 87, 86, 83, 81, 80, 78, 76, 75, 74, 73}, {98, 92, 85, 84, 83, 79, 77, 74, 73, 57}, {92, 85, 83, 79, 77, 64, 55, 52}, {93, 90, 83, 82, 80, 79, 75, 74, 63}, {97, 96, 94, 90, 84, 80, 77, 75, 74}, {97, 92, 86, 82, 81, 80, 79, 77, 74}, {95, 92, 89, 83, 76, 74, 55}, {96, 94, 88, 84, 83, 80, 74}, {91, 87, 77, 73, 57}, {88, 82, 81, 79, 75, 73}, {78, 77, 74, 73}, {82, 76, 69}, {86, 79, 73}, {82, 75, 73}, {75, 74, 73}, {78, 66}, {75, 73}, {79, 78}, {80, 78}, {88, 84}, {85, 79}, {81, 74}, {89, 75}, {76, 73}, {73}, {74}, {74}, {76}, {75}, {76}, {77}, {76}, {79}, {73}, {}, {}, {}, {}, {}, {}, {}, {}, {}, {}, {}, {}, {}, {}, {}, {}, {}, {}, {}, {}, {}, {}, {}, {}, {}, {}, {}, {}];
n_opt = 600;
dur = [6, 10, 11, 18, 19, 20, 4, 8, 9, 11, 16, 18, 1, 4, 5, 9, 12, 20, 10, 12, 13, 16, 17, 19, 3, 6, 10, 14, 16, 19, 2, 5, 9, 12, 16, 20, 3, 7, 11, 12, 14, 20, 1, 4, 10, 11, 15, 16, 1, 4, 10, 13, 17, 18, 2, 3, 5, 6, 8, 14, 2, 4, 8, 9, 14, 15, 3, 6, 8, 9, 11, 19, 1, 4, 10, 11, 14, 15, 9, 10, 12, 15, 16, 19, 3, 4, 5, 10, 16, 18, 2, 5, 6, 8, 14, 18, 5, 6, 10, 14, 15, 16, 2, 3, 4, 5, 9, 13, 1, 6, 7, 11, 12, 15, 1, 3, 6, 7, 12, 13, 4, 6, 8, 9, 10, 20, 6, 7, 8, 10, 15, 16, 5, 6, 7, 9, 12, 20, 1, 2, 8, 9, 18, 20, 3, 4, 8, 12, 13, 16, 5, 7, 9, 16, 18, 19, 2, 4, 5, 9, 14, 17, 1, 9, 10, 13, 15, 18, 4, 5, 7, 10, 11, 17, 4, 6, 8, 9, 14, 20, 3, 6, 13, 14, 15, 17, 10, 12, 16, 17, 18, 19, 1, 2, 5, 16, 19, 20, 3, 9, 11, 12, 13, 14, 1, 4, 6, 15, 17, 18, 2, 6, 7, 10, 11, 14, 1, 11, 12, 13, 18, 20, 7, 8, 10, 12, 13, 18, 2, 3, 4, 12, 13, 14, 1, 2, 6, 10, 11, 16, 3, 5, 7, 8, 9, 12, 5, 7, 8, 15, 16, 20, 3, 7, 8, 10, 11, 20, 2, 4, 9, 12, 15, 16, 4, 6, 7, 12, 15, 17, 2, 4, 11, 12, 17, 20, 3, 8, 13, 14, 15, 20, 3, 6, 7, 10, 17, 19, 4, 9, 16, 17, 18, 20, 1, 3, 7, 8, 14, 15, 2, 5, 6, 7, 8, 9, 1, 4, 5, 9, 13, 18, 3, 8, 9, 10, 11, 19, 9, 13, 14, 15, 16, 17, 3, 4, 7, 10, 14, 15, 4, 7, 13, 14, 15, 19, 4, 5, 13, 15, 18, 19, 4, 5, 6, 11, 14, 15, 2, 4, 7, 8, 11, 20, 4, 5, 6, 7, 14, 20, 6, 9, 10, 12, 13, 14, 1, 3, 5, 7, 14, 19, 1, 2, 4, 12, 17, 19, 11, 14, 16, 17, 18, 20, 3, 4, 5, 7, 11, 16, 9, 13, 14, 16, 19, 20, 5, 10, 12, 14, 18, 20, 1, 6, 7, 8, 9, 16, 4, 5, 6, 7, 9, 11, 4, 11, 13, 15, 16, 17, 3, 4, 10, 12, 14, 15, 1, 8, 9, 17, 18, 19, 1, 2, 5, 9, 19, 20, 5, 8, 9, 10, 11, 12, 3, 5, 8, 9, 10, 20, 5, 9, 16, 17, 18, 20, 1, 7, 9, 12, 15, 20, 1, 3, 4, 8, 15, 20, 2, 4, 6, 7, 12, 17, 7, 9, 11, 15, 16, 17, 1, 3, 4, 5, 15, 16, 2, 6, 7, 10, 19, 20, 5, 6, 11, 15, 16, 17, 1, 3, 4, 6, 9, 12, 1, 10, 13, 15, 18, 19, 2, 3, 7, 8, 10, 16, 2, 5, 8, 11, 14, 18, 2, 6, 10, 12, 13, 17, 9, 11, 12, 14, 17, 20, 3, 8, 12, 17, 18, 20, 7, 12, 14, 16, 19, 20, 1, 2, 9, 12, 15, 20, 1, 2, 3, 4, 10, 13, 2, 6, 8, 11, 14, 15, 4, 13, 15, 16, 17, 20, 9, 10, 11, 12, 13, 15, 2, 3, 8, 10, 11, 13, 1, 2, 3, 3, 4, 16, 3, 9, 10, 11, 14, 15, 3, 4, 5, 7, 11, 17];
rreq = [|4, 4, 4, 4, 4, 4, 5, 4, 3, 3, 3, 2, 3, 3, 3, 2, 2, 1, 3, 3, 3, 2, 1, 1, 2, 2, 2, 2, 1, 1, 3, 3, 2, 2, 1, 1, 1, 1, 1, 1, 1, 1, 4, 4, 4, 4, 4, 4, 3, 2, 2, 1, 1, 1, 4, 3, 3, 2, 1, 1, 4, 4, 4, 4, 3, 3, 4, 4, 4, 4, 3, 3, 5, 4, 4, 4, 3, 3, 2, 1, 1, 1, 1, 1, 3, 3, 3, 3, 3, 3, 5, 4, 4, 4, 4, 4, 5, 4, 4, 3, 3, 2, 3, 2, 2, 2, 2, 2, 2, 2, 2, 2, 2, 2, 4, 3, 3, 2, 2, 1, 3, 2, 2, 1, 1, 1, 5, 3, 3, 2, 2, 1, 2, 2, 2, 2, 2, 2, 4, 3, 3, 2, 1, 1, 4, 4, 4, 3, 3, 2, 5, 4, 4, 3, 3, 2, 4, 4, 4, 4, 4, 4, 1, 1, 1, 1, 1, 1, 3, 3, 3, 3, 3, 3, 1, 1, 1, 1, 1, 1, 2, 1, 1, 1, 1, 1, 4, 4, 4, 3, 3, 3, 4, 3, 3, 3, 2, 2, 3, 3, 3, 3, 3, 3, 2, 2, 2, 2, 2, 2, 4, 3, 3, 3, 2, 2, 5, 5, 5, 5, 5, 5, 4, 3, 3, 3, 3, 3, 3, 2, 2, 2, 1, 1, 5, 4, 3, 3, 1, 1, 4, 4, 4, 4, 4, 4, 2, 2, 2, 2, 2, 2, 2, 2, 2, 2, 2, 2, 5, 4, 4, 4, 4, 4, 4, 4, 4, 4, 3, 3, 2, 1, 1, 1, 1, 1, 5, 4, 4, 4, 4, 4, 5, 4, 4, 4, 4, 4, 2, 2, 2, 1, 1, 1, 4, 4, 4, 4, 4, 4, 5, 4, 4, 4, 4, 4, 1, 1, 1, 1, 1, 1, 1, 1, 1, 1, 1, 1, 1, 1, 1, 1, 1, 1, 5, 4, 4, 3, 3, 3, 4, 4, 4, 4, 3, 3, 5, 4, 3, 3, 2, 2, 4, 3, 3, 3, 3, 3, 5, 4, 4, 4, 4, 4, 5, 3, 3, 2, 1, 1, 4, 3, 3, 2, 2, 2, 5, 5, 5, 5, 5, 5, 5, 3, 3, 2, 1, 1, 4, 4, 4, 4, 4, 4, 4, 4, 3, 3, 1, 1, 4, 3, 3, 3, 2, 2, 5, 4, 4, 4, 3, 3, 5, 4, 4, 3, 3, 2, 2, 2, 2, 1, 1, 1, 5, 3, 3, 2, 1, 1, 3, 3, 2, 2, 1, 1, 3, 3, 3, 2, 2, 2, 4, 3, 3, 3, 3, 3, 4, 4, 4, 3, 3, 3, 4, 4, 4, 4, 4, 4, 1, 1, 1, 1, 1, 1, 4, 4, 4, 3, 3, 3, 4, 4, 4, 4, 4, 4, 2, 1, 1, 1, 1, 1, 4, 4, 3, 3, 3, 2, 2, 2, 2, 2, 2, 2, 5, 4, 4, 4, 4, 4, 3, 3, 3, 3, 3, 3, 3, 3, 3, 3, 2, 2, 4, 4, 4, 4, 4, 4, 4, 4, 4, 4, 4, 4, 4, 4, 3, 3, 3, 2, 4, 4, 3, 3, 2, 2, 3, 2, 2, 2, 1, 1, 4, 3, 3, 3, 3, 3, 5, 4, 4, 3, 3, 2, 4, 4, 3, 2, 2, 1, 3, 3, 3, 3, 3, 3, 4, 3, 3, 2, 2, 2, 5, 4, 4, 4, 3, 3, 2, 2, 2, 2, 2, 2, 3, 3, 3, 3, 3, 3, 3, 3, 3, 2, 1, 1, 5, 4, 3, 3, 1, 1, 5, 4, 4, 4, 4, 4
 |4, 4, 4, 4, 4, 4, 1, 1, 1, 1, 1, 1, 5, 4, 3, 3, 3, 2, 4, 4, 3, 2, 1, 1, 3, 3, 3, 3, 3, 3, 4, 4, 4, 4, 4, 4, 4, 4, 4, 4, 4, 4, 5, 4, 4, 3, 3, 3, 4, 3, 3, 3, 3, 3, 4, 4, 4, 4, 3, 3, 3, 2, 2, 2, 1, 1, 4, 4, 4, 4, 3, 3, 4, 3, 3, 2, 2, 2, 3, 3, 3, 3, 2, 2, 2, 2, 2, 2, 2, 2, 4, 3, 2, 2, 1, 1, 3, 3, 2, 2, 2, 1, 5, 3, 3, 2, 1, 1, 3, 3, 3, 2, 2, 2, 4, 3, 3, 3, 3, 3, 4, 4, 4, 4, 4, 4, 4, 4, 4, 4, 4, 4, 3, 2, 2, 2, 1, 1, 2, 1, 1, 1, 1, 1, 1, 1, 1, 1, 1, 1, 3, 3, 3, 2, 1, 1, 4, 3, 3, 2, 2, 1, 5, 4, 4, 3, 3, 2, 3, 2, 2, 2, 2, 2, 5, 4, 3, 3, 3, 2, 1, 1, 1, 1, 1, 1, 5, 4, 4, 4, 3, 3, 3, 3, 3, 3, 2, 2, 3, 3, 3, 3, 2, 2, 5, 3, 3, 3, 2, 1, 1, 1, 1, 1, 1, 1, 2, 2, 2, 2, 2, 2, 4, 4, 3, 3, 2, 2, 4, 3, 3, 3, 3, 3, 5, 4, 4, 3, 2, 2, 4, 4, 4, 3, 2, 2, 5, 5, 5, 5, 5, 5, 3, 2, 2, 2, 1, 1, 4, 4, 4, 4, 4, 4, 2, 2, 2, 2, 2, 2, 2, 1, 1, 1, 1, 1, 5, 4, 4, 4, 3, 3, 4, 3, 3, 2, 2, 2, 5, 5, 5, 5, 5, 5, 1, 1, 1, 1, 1, 1, 2, 2, 2, 2, 2, 2, 4, 4, 4, 4, 4, 4, 4, 4, 4, 4, 4, 4, 3, 2, 2, 2, 2, 2, 3, 3, 2, 2, 1, 1, 3, 3, 3, 3, 3, 3, 2, 2, 2, 2, 2, 2, 2, 2, 2, 2, 1, 1, 3, 3, 3, 3, 3, 3, 2, 2, 2, 2, 2, 2, 4, 4, 4, 4, 3, 3, 2, 2, 2, 1, 1, 1, 4, 3, 3, 3, 2, 2, 3, 3, 3, 2, 1, 1, 5, 4, 3, 3, 1, 1, 2, 2, 2, 2, 2, 2, 4, 4, 3, 3, 3, 2, 3, 3, 3, 3, 3, 3, 4, 3, 3, 3, 2, 1, 2, 2, 2, 2, 2, 2, 4, 3, 3, 3, 2, 1, 4, 4, 4, 4, 3, 3, 2, 1, 1, 1, 1, 1, 5, 3, 3, 2, 1, 1, 5, 3, 3, 2, 1, 1, 3, 3, 3, 3, 3, 3, 4, 4, 4, 3, 2, 2, 2, 2, 2, 2, 1, 1, 3, 3, 2, 2, 1, 1, 3, 2, 2, 2, 2, 2, 4, 4, 4, 4, 4, 4, 3, 3, 3, 2, 2, 1, 2, 2, 2, 2, 1, 1, 3, 2, 2, 1, 1, 1, 3, 3, 3, 2, 2, 2, 1, 1, 1, 1, 1, 1, 2, 2, 2, 2, 1, 1, 2, 2, 2, 2, 2, 2, 2, 2, 2, 2, 2, 2, 5, 4, 4, 3, 3, 3, 3, 3, 3, 3, 3, 3, 5, 4, 4, 3, 3, 3, 3, 3, 3, 3, 3, 3, 5, 4, 4, 4, 3, 3, 5, 4, 3, 2, 1, 1, 4, 4, 4, 3, 3, 2, 4, 3, 3, 3, 3, 3, 3, 2, 2, 1, 1, 1, 4, 4, 4, 4, 4, 4, 5, 4, 3, 2, 1, 1
 |17, 17, 17, 17, 16, 16, 18, 18, 18, 18, 18, 18, 15, 12, 11, 8, 5, 3, 9, 8, 6, 6, 4, 4, 10, 10, 9, 8, 7, 7, 20, 17, 13, 9, 5, 2, 18, 18, 18, 18, 18, 18, 19, 17, 14, 12, 9, 7, 19, 17, 17, 16, 15, 14, 20, 16, 14, 12, 10, 6, 11, 11, 9, 8, 6, 5, 19, 17, 15, 14, 13, 12, 19, 13, 12, 9, 5, 2, 10, 8, 7, 6, 4, 3, 19, 18, 18, 17, 17, 16, 18, 17, 17, 14, 14, 12, 9, 8, 8, 7, 5, 5, 8, 8, 8, 8, 7, 7, 13, 12, 10, 9, 9, 8, 19, 16, 13, 13, 10, 8, 11, 10, 9, 8, 6, 3, 12, 12, 12, 12, 12, 12, 12, 11, 10, 7, 6, 4, 14, 14, 13, 13, 13, 12, 14, 14, 13, 12, 12, 11, 15, 13, 11, 9, 8, 4, 19, 17, 16, 16, 14, 14, 20, 19, 19, 19, 19, 19, 12, 9, 7, 6, 4, 2, 16, 14, 13, 11, 9, 5, 11, 10, 10, 9, 9, 8, 18, 18, 18, 17, 17, 17, 19, 19, 19, 18, 18, 18, 17, 13, 11, 7, 6, 1, 13, 12, 12, 11, 11, 10, 9, 9, 9, 9, 9, 9, 7, 7, 7, 6, 5, 5, 13, 11, 11, 9, 7, 4, 16, 13, 13, 10, 8, 8, 13, 11, 10, 9, 5, 2, 6, 5, 5, 5, 4, 4, 11, 10, 8, 7, 5, 3, 17, 17, 17, 17, 16, 16, 12, 11, 11, 10, 9, 9, 13, 12, 12, 11, 10, 10, 19, 18, 16, 16, 14, 13, 11, 11, 10, 9, 9, 8, 11, 11, 11, 11, 11, 11, 20, 18, 15, 15, 11, 11, 15, 15, 15, 14, 14, 14, 17, 17, 12, 11, 7, 7, 20, 15, 14, 10, 9, 6, 18, 16, 16, 14, 10, 10, 18, 14, 13, 8, 7, 5, 13, 11, 10, 7, 6, 4, 16, 16, 16, 15, 14, 14, 13, 11, 9, 7, 5, 2, 15, 13, 13, 8, 8, 5, 11, 10, 9, 9, 7, 7, 10, 10, 7, 7, 5, 3, 9, 7, 7, 6, 3, 1, 3, 3, 3, 3, 3, 3, 17, 15, 13, 10, 9, 8, 14, 12, 11, 10, 9, 9, 18, 15, 14, 12, 11, 8, 8, 8, 8, 8, 8, 8, 14, 13, 11, 11, 9, 9, 16, 15, 15, 15, 15, 15, 20, 19, 19, 19, 19, 19, 15, 15, 14, 12, 11, 11, 15, 13, 12, 10, 10, 7, 13, 13, 13, 12, 12, 12, 11, 9, 6, 5, 2, 1, 14, 11, 9, 6, 3, 2, 16, 14, 12, 10, 10, 8, 16, 16, 16, 16, 16, 16, 2, 1, 1, 1, 1, 1, 11, 9, 7, 6, 3, 1, 18, 13, 11, 10, 4, 4, 15, 13, 12, 12, 11, 10, 10, 9, 9, 8, 8, 8, 10, 10, 9, 9, 9, 8, 8, 8, 7, 5, 5, 4, 19, 17, 17, 15, 14, 14, 18, 17, 15, 15, 14, 13, 10, 8, 8, 7, 5, 4, 3, 3, 3, 3, 3, 3, 11, 11, 8, 7, 3, 2, 5, 5, 5, 5, 5, 5, 20, 15, 12, 10, 9, 7, 10, 10, 9, 8, 6, 5, 16, 15, 14, 14, 13, 12, 14, 12, 12, 8, 7, 4, 15, 12, 10, 8, 4, 4, 16, 14, 12, 9, 8, 5, 16, 12, 12, 8, 7, 4, 16, 11, 11, 7, 4, 3, 3, 2, 2, 2, 2, 2, 20, 19, 19, 19, 19, 19, 15, 13, 13, 12, 9, 8
 |13, 12, 11, 10, 10, 9, 18, 18, 18, 17, 16, 17, 6, 5, 4, 4, 2, 2, 16, 16, 14, 12, 12, 9, 20, 19, 19, 19, 18, 17, 15, 15, 13, 11, 10, 10, 11, 10, 9, 8, 7, 6, 12, 12, 12, 11, 11, 10, 8, 7, 6, 6, 6, 5, 15, 14, 12, 9, 9, 5, 17, 16, 16, 16, 16, 16, 14, 13, 11, 8, 5, 3, 8, 7, 7, 7, 6, 6, 16, 13, 12, 11, 11, 9, 15, 13, 11, 10, 9, 5, 13, 13, 11, 10, 9, 8, 17, 15, 13, 10, 8, 7, 10, 9, 8, 7, 5, 4, 13, 11, 10, 7, 6, 3, 17, 17, 15, 14, 13, 13, 16, 13, 12, 8, 7, 4, 5, 4, 3, 3, 2, 2, 19, 16, 10, 10, 4, 4, 19, 15, 14, 14, 10, 9, 12, 11, 9, 8, 7, 7, 8, 8, 7, 6, 5, 3, 9, 8, 7, 6, 2, 2, 8, 8, 7, 4, 2, 2, 12, 12, 10, 7, 6, 4, 17, 15, 13, 13, 12, 10, 15, 15, 11, 11, 9, 7, 15, 15, 14, 14, 13, 12, 19, 16, 12, 7, 6, 3, 6, 5, 4, 4, 3, 2, 17, 16, 15, 15, 14, 14, 20, 18, 16, 15, 12, 11, 9, 8, 6, 6, 4, 3, 10, 10, 6, 6, 3, 2, 9, 8, 7, 6, 6, 5, 9, 9, 9, 9, 8, 8, 18, 17, 15, 12, 10, 9, 11, 9, 8, 8, 7, 6, 13, 14, 13, 12, 12, 11, 10, 9, 8, 9, 8, 7, 13, 11, 10, 7, 6, 4, 7, 7, 5, 4, 3, 2, 17, 15, 15, 13, 12, 11, 13, 10, 9, 8, 7, 6, 17, 14, 12, 9, 6, 4, 12, 9, 8, 7, 5, 4, 10, 9, 7, 6, 5, 4, 16, 15, 13, 11, 8, 7, 14, 14, 13, 12, 11, 10, 12, 10, 10, 10, 8, 8, 3, 3, 3, 3, 3, 3, 8, 7, 6, 4, 4, 1, 10, 9, 8, 6, 5, 3, 14, 14, 11, 11, 8, 8, 9, 8, 7, 5, 5, 4, 19, 19, 19, 19, 19, 19, 20, 15, 13, 13, 10, 8, 9, 8, 7, 8, 7, 6, 11, 11, 11, 11, 11, 11, 8, 7, 7, 7, 7, 6, 17, 17, 16, 16, 16, 15, 12, 10, 9, 8, 8, 6, 16, 14, 14, 13, 12, 10, 18, 17, 16, 14, 13, 13, 17, 15, 13, 13, 10, 9, 8, 7, 6, 6, 5, 4, 13, 11, 10, 9, 9, 7, 18, 16, 13, 11, 5, 4, 15, 15, 13, 13, 12, 11, 17, 16, 16, 15, 13, 13, 15, 15, 15, 15, 15, 15, 15, 13, 12, 11, 10, 9, 17, 17, 16, 16, 16, 15, 18, 18, 18, 18, 18, 18, 9, 7, 5, 4, 3, 2, 16, 14, 12, 10, 5, 2, 6, 6, 5, 6, 5, 4, 4, 4, 4, 4, 3, 4, 12, 11, 11, 10, 9, 9, 2, 2, 1, 2, 2, 1, 14, 14, 14, 14, 14, 14, 15, 15, 14, 13, 12, 10, 16, 15, 16, 15, 16, 16, 17, 16, 17, 17, 17, 17, 15, 13, 12, 11, 9, 7, 7, 6, 6, 6, 6, 6, 13, 12, 11, 11, 9, 9, 18, 18, 16, 16, 13, 13, 13, 13, 12, 12, 12, 12, 14, 13, 12, 11, 10, 9, 13, 11, 10, 7, 3, 2, 11, 9, 8, 6, 6, 4, 15, 14, 13, 12, 11, 9, 13, 13, 12, 13, 13, 12, 11, 10, 10, 9, 9, 8, 19, 16, 16, 15, 14, 13|];